# vtk DataFile Version 2.0
Simplicial Mesh Example
ASCII
DATASET UNSTRUCTURED_GRID
POINTS 4 double
-5.000000e-01 -5.000000e-01 0.0
5.000000e-01 -5.000000e-01 0.0
-5.000000e-01 5.000000e-01 0.0
5.000000e-01 5.000000e-01 0.0
CELLS 2 8
3  0 1 2
3  1 3 2
CELL_TYPES 2
5
5
CELL_DATA 2
VECTORS total_strain double
6.760012e-03 6.760012e-03 1.323999e-02
6.760012e-03 6.760012e-03 1.323999e-02
VECTORS stress double
7.943993e+08 7.943993e+08 7.943993e+08
7.943993e+08 7.943993e+08 7.943993e+08
